NAME : kroA100-R-5-0-a.50192.tour
COMMENT : Length = 50192
COMMENT : Found by LKH-3 [Keld Helsgaun] Tue Jul 30 13:14:56 2024
TYPE : TOUR
DIMENSION : 100
TOUR_SECTION
1
10
72
74
36
94
16
53
65
26
97
54
64
85
51
12
3
41
100
37
33
82
73
68
81
25
87
61
67
28
47
49
21
59
32
98
23
20
43
14
78
30
29
46
34
83
35
86
7
9
69
58
93
15
18
22
19
75
8
31
80
92
4
66
70
79
38
84
11
17
45
91
55
71
13
76
95
2
40
50
44
39
96
5
52
48
57
27
62
60
77
89
42
56
88
24
99
90
6
63
-1
EOF
